RT is False
Default write of storage_offers_DA.csv just to have a file (but constraint should be inactive)
Reading model...
...model read.
creating competitive generators file...
...competitive generators recorded.
Loading data...
.. day-ahead data with real-time VRE data read.
Compiling instance...
...instance created.
Creating Offer Mitigation (model will solve as dispatch if TRUE)...
Solving...

Welcome to IBM(R) ILOG(R) CPLEX(R) Interactive Optimizer 12.9.0.0
  with Simplex, Mixed Integer & Barrier Optimizers
5725-A06 5725-A29 5724-Y48 5724-Y49 5724-Y54 5724-Y55 5655-Y21
Copyright IBM Corp. 1988, 2019.  All Rights Reserved.

Type 'help' for a list of available commands.
Type 'help' followed by a command name for more
information on commands.

CPLEX> Logfile 'cplex.log' closed.
Logfile 'C:\Users\Luke\Desktop\test919\logs\tmp69ky4jid.cplex.log' open.
CPLEX> New value for parallel optimization mode: -1
CPLEX> New value for emphasis for MIP optimization: 1
CPLEX> New value for mixed integer optimality gap tolerance: 0.01
CPLEX> New value for integrality tolerance: 1e-12
CPLEX> New value for deterministic time limit in ticks: 75000
CPLEX> Problem 'C:\Users\Luke\Desktop\test919\logs\tmp2ho2a93w.pyomo.lp' read.
Read time = 0.05 sec. (3.05 ticks)
CPLEX> Problem name         : C:\Users\Luke\Desktop\test919\logs\tmp2ho2a93w.pyomo.lp
Objective sense      : Minimize
Variables            :   26085  [Nneg: 1,  Box: 21620,  Free: 4464]
Objective nonzeros   :    2496
Linear constraints   :   27563  [Less: 14006,  Greater: 4416,  Equal: 9141]
  Nonzeros           :   90683
  RHS nonzeros       :   12271

Variables            : Min LB: -5000.000        Max UB: 1000000.       
Objective nonzeros   : Min   : 15.73158         Max   : 124.0997       
Linear constraints   :
  Nonzeros           : Min   : 0.8500000        Max   : 3000.000       
  RHS nonzeros       : Min   : 0.4000000        Max   : 5000.000       
CPLEX> CPXPARAM_Parallel                                -1
CPXPARAM_Emphasis_MIP                            1
CPXPARAM_DetTimeLimit                            75000
CPXPARAM_MIP_Tolerances_MIPGap                   0.01
CPXPARAM_MIP_Tolerances_Integrality              9.9999999999999998e-13
Parallel mode: opportunistic, using up to 12 threads for concurrent optimization.
Tried aggregator 1 time.
LP Presolve eliminated 21384 rows and 15495 columns.
Aggregator did 754 substitutions.
Reduced LP has 5425 rows, 9836 columns, and 32578 nonzeros.
Presolve time = 0.05 sec. (30.58 ticks)
Symmetry aggregator did 5659 additional substitutions.
Initializing dual steep norms . . .

Iteration log . . .
Iteration:     1   Dual objective     =             0.000000
Perturbation started.
Iteration:   101   Dual objective     =             0.000000
Iteration:   342   Dual objective     =            55.531287
Iteration:   551   Dual objective     =            66.564870
Iteration:   769   Dual objective     =            66.914654
Iteration:   954   Dual objective     =         36941.546268
Iteration:  1120   Dual objective     =         74263.070737
Removing perturbation.

Dual crossover.
  Dual:  Fixing 3 variables.
        2 DMoves:  Infeasibility  8.24229573e-14  Objective  8.68685386e+04
        0 DMoves:  Infeasibility  1.13686838e-14  Objective  8.68685386e+04
  Dual:  Pushed 0, exchanged 3.
  Primal:  Fixing 1 variable.
        0 PMoves:  Infeasibility  2.33736586e-09  Objective  8.68685386e+04
  Primal:  Pushed 1, exchanged 0.

Dual simplex solved model.


Dual simplex - Optimal:  Objective =  8.6868538584e+04
Solution time =    0.11 sec.  Iterations = 1382 (0)
Deterministic time = 80.72 ticks  (740.57 ticks/sec)

CPLEX> Solution written to file 'C:\Users\Luke\Desktop\test919\logs\tmpv064or8s.cplex.sol'.
CPLEX> Exporting results... 
...storage offer mitigation file created
Converting model to MPEC...
...converted
NOTE: initial MIP solve with only storage competitive to get feasible solution
Solving...

Welcome to IBM(R) ILOG(R) CPLEX(R) Interactive Optimizer 12.9.0.0
  with Simplex, Mixed Integer & Barrier Optimizers
5725-A06 5725-A29 5724-Y48 5724-Y49 5724-Y54 5724-Y55 5655-Y21
Copyright IBM Corp. 1988, 2019.  All Rights Reserved.

Type 'help' for a list of available commands.
Type 'help' followed by a command name for more
information on commands.

CPLEX> Logfile 'cplex.log' closed.
Logfile 'C:\Users\Luke\Desktop\test919\logs\tmpfn4347vx.cplex.log' open.
CPLEX> New value for parallel optimization mode: -1
CPLEX> New value for emphasis for MIP optimization: 1
CPLEX> New value for mixed integer optimality gap tolerance: 0.01
CPLEX> New value for integrality tolerance: 1e-12
CPLEX> New value for deterministic time limit in ticks: 75000
CPLEX> Problem 'C:\Users\Luke\Desktop\test919\logs\tmpv1hvuejh.pyomo.lp' read.
Read time = 0.20 sec. (13.88 ticks)
CPLEX> Problem name         : C:\Users\Luke\Desktop\test919\logs\tmpv1hvuejh.pyomo.lp
Objective sense      : Maximize
Variables            :   53809  [Nneg: 1,  Box: 22004,  Free: 4464,
                                 Binary: 27340]
Objective nonzeros   :    9029
Linear constraints   :  123253  [Less: 41346,  Greater: 59096,  Equal: 22811]
  Nonzeros           :  293217
  RHS nonzeros       :   67491

Variables            : Min LB: -5000.000        Max UB: 1000000.       
Objective nonzeros   : Min   : 0.4000000        Max   : 2500.000       
Linear constraints   :
  Nonzeros           : Min   : 0.4000000        Max   : 1000000.       
  RHS nonzeros       : Min   : 0.4000000        Max   : 1000000.       
CPLEX> CPXPARAM_Parallel                                -1
CPXPARAM_Emphasis_MIP                            1
CPXPARAM_DetTimeLimit                            75000
CPXPARAM_MIP_Tolerances_MIPGap                   0.01
CPXPARAM_MIP_Tolerances_Integrality              9.9999999999999998e-13
Tried aggregator 4 times.
MIP Presolve eliminated 88677 rows and 18980 columns.
MIP Presolve added 3378 rows and 0 columns.
MIP Presolve modified 24841 coefficients.
Aggregator did 13000 substitutions.
Reduced MIP has 24954 rows, 21273 columns, and 71787 nonzeros.
Reduced MIP has 8413 binaries, 0 generals, 0 SOSs, and 0 indicators.
Presolve time = 0.25 sec. (195.29 ticks)
Probing fixed 383 vars, tightened 3851 bounds.
Probing time = 0.05 sec. (18.86 ticks)
Tried aggregator 2 times.
MIP Presolve eliminated 874 rows and 776 columns.
MIP Presolve modified 3037 coefficients.
Aggregator did 24 substitutions.
Reduced MIP has 24056 rows, 20473 columns, and 69181 nonzeros.
Reduced MIP has 8026 binaries, 0 generals, 0 SOSs, and 0 indicators.
Presolve time = 0.09 sec. (89.70 ticks)
Probing fixed 0 vars, tightened 237 bounds.
Probing time = 0.13 sec. (22.83 ticks)
Clique table members: 44904.
MIP emphasis: integer feasibility.
MIP search method: dynamic search.
Parallel mode: opportunistic, using up to 12 threads.
Root relaxation solution time = 0.42 sec. (653.91 ticks)

        Nodes                                         Cuts/
   Node  Left     Objective  IInf  Best Integer    Best Bound    ItCnt     Gap

      0     0     3445.8917   117                   3445.8917     5540         
      0     0     3445.8917    10                    Cuts: 48     5557         
      0     0     3445.8917    10                   Covers: 1     5558         
      0     0     3445.8917     9                   Covers: 1     5560         
      0     5     2938.9593    12                     Cuts: 2     5579         
Elapsed time = 2.86 sec. (1676.21 ticks, tree = 0.02 MB, solutions = 0)
    207    82    -4180.5481    12                   3382.9987     6560         
*   304   143      integral     0     3158.3643     3382.9987     7567    7.11%
    401    92        cutoff           3158.3643     3382.9987     8573    7.11%
    512    48        cutoff           3158.3643     3373.5007    10424    6.81%
    613    58        cutoff           3158.3643     3373.5007    10610    6.81%
*   629    53      integral     0     3351.8215     3373.5007    10715    0.65%
    662    48     3373.5007    10     3351.8215     3373.5007    10745    0.65%

Clique cuts applied:  1
Cover cuts applied:  3
Implied bound cuts applied:  3
Flow cuts applied:  24
Gomory fractional cuts applied:  13

Root node processing (before b&c):
  Real time             =    2.45 sec. (1646.20 ticks)
Parallel b&c, 12 threads:
  Real time             =    3.81 sec. (1292.22 ticks)
  Sync time (average)   =    0.21 sec.
  Wait time (average)   =    0.00 sec.
                          ------------
Total (root+branch&cut) =    6.27 sec. (2938.42 ticks)

Solution pool: 2 solutions saved.

MIP - Integer optimal, tolerance (0.01/1e-06):  Objective =  3.3518214621e+03
Current MIP best bound =  3.3735007304e+03 (gap = 21.6793, 0.65%)
Solution time =    6.27 sec.  Iterations = 10839  Nodes = 664 (23)
Deterministic time = 2938.57 ticks  (468.97 ticks/sec)

CPLEX> Incumbent solution written to file 'C:\Users\Luke\Desktop\test919\logs\tmpwyb4n672.cplex.sol'.
CPLEX> NOTE: no warmstart specified for MIP iteration, default behavior is true
NOTE: resolving with all competitive generators using storage-only solution to warmstart
Solving...

Welcome to IBM(R) ILOG(R) CPLEX(R) Interactive Optimizer 12.9.0.0
  with Simplex, Mixed Integer & Barrier Optimizers
5725-A06 5725-A29 5724-Y48 5724-Y49 5724-Y54 5724-Y55 5655-Y21
Copyright IBM Corp. 1988, 2019.  All Rights Reserved.

Type 'help' for a list of available commands.
Type 'help' followed by a command name for more
information on commands.

CPLEX> Logfile 'cplex.log' closed.
Logfile 'C:\Users\Luke\Desktop\test919\logs\tmp64umskv7.cplex.log' open.
CPLEX> New value for parallel optimization mode: -1
CPLEX> New value for emphasis for MIP optimization: 1
CPLEX> New value for mixed integer optimality gap tolerance: 0.01
CPLEX> New value for integrality tolerance: 1e-12
CPLEX> New value for deterministic time limit in ticks: 75000
CPLEX> Problem 'C:\Users\Luke\Desktop\test919\logs\tmph_qoeqlf.pyomo.lp' read.
Read time = 0.19 sec. (13.91 ticks)
CPLEX> MIP start file 'C:\Users\Luke\Desktop\test919\logs\tmpa_vgg6jw.cplex.mst' read.
CPLEX> Problem name         : C:\Users\Luke\Desktop\test919\logs\tmph_qoeqlf.pyomo.lp
Objective sense      : Maximize
Variables            :   54529  [Nneg: 1,  Box: 22724,  Free: 4464,
                                 Binary: 27340]
Objective nonzeros   :    9725
Linear constraints   :  123253  [Less: 41346,  Greater: 59096,  Equal: 22811]
  Nonzeros           :  293217
  RHS nonzeros       :   67491

Variables            : Min LB: -5000.000        Max UB: 1000000.       
Objective nonzeros   : Min   : 0.4000000        Max   : 2500.000       
Linear constraints   :
  Nonzeros           : Min   : 0.4000000        Max   : 1000000.       
  RHS nonzeros       : Min   : 0.4000000        Max   : 1000000.       
CPLEX> CPXPARAM_Parallel                                -1
CPXPARAM_Emphasis_MIP                            1
CPXPARAM_DetTimeLimit                            75000
CPXPARAM_MIP_Tolerances_MIPGap                   0.01
CPXPARAM_MIP_Tolerances_Integrality              9.9999999999999998e-13
Warning:  No solution found from 1 MIP starts.
Retaining values of one MIP start for possible repair.
Tried aggregator 4 times.
MIP Presolve eliminated 88677 rows and 19700 columns.
MIP Presolve added 3378 rows and 0 columns.
MIP Presolve modified 24841 coefficients.
Aggregator did 13000 substitutions.
Reduced MIP has 24954 rows, 21273 columns, and 71787 nonzeros.
Reduced MIP has 8413 binaries, 0 generals, 0 SOSs, and 0 indicators.
Presolve time = 0.27 sec. (195.71 ticks)
Probing fixed 383 vars, tightened 3851 bounds.
Probing time = 0.05 sec. (18.86 ticks)
Tried aggregator 2 times.
MIP Presolve eliminated 874 rows and 776 columns.
MIP Presolve modified 3037 coefficients.
Aggregator did 24 substitutions.
Reduced MIP has 24056 rows, 20473 columns, and 69181 nonzeros.
Reduced MIP has 8026 binaries, 0 generals, 0 SOSs, and 0 indicators.
Presolve time = 0.11 sec. (89.71 ticks)
Probing fixed 0 vars, tightened 237 bounds.
Probing time = 0.13 sec. (22.83 ticks)
Clique table members: 44904.
MIP emphasis: integer feasibility.
MIP search method: dynamic search.
Parallel mode: opportunistic, using up to 12 threads.
Root relaxation solution time = 0.49 sec. (708.64 ticks)

        Nodes                                         Cuts/
   Node  Left     Objective  IInf  Best Integer    Best Bound    ItCnt     Gap

      0     0   114918.1494   283                 114918.1494     5981         
      0     0   101659.7433   192                   Cuts: 163     6208         
      0     0   100764.5027   186                    Cuts: 72     6315         
      0     0   100712.1549   169                    Cuts: 32     6338         
Repair heuristic found nothing.
      0    13    97882.7651   159                 Flowcuts: 6     6479         
Elapsed time = 3.31 sec. (1920.12 ticks, tree = 0.02 MB, solutions = 0)
    261   225    95135.6292   122                  99505.3998     8234         
    519   437    infeasible                        99505.3998    10111         
    773   505    infeasible                        99505.3998    11284         
    945   804    14015.7520    57                  99505.3998    16196         
   1153   858   -61894.6399    63                  99505.3998    17072         
   1360   988    infeasible                        99505.3998    19612         
   1586  1133    40167.0788    79                  99505.3998    22867         
   1799  1409    67362.1851   111                  99505.3998    30216         
   2015  1287    -6584.2525    71                  99505.3998    27802         
   2962  1975    26792.8398   111                  99505.3998    43010         
Elapsed time = 16.25 sec. (5024.21 ticks, tree = 14.92 MB, solutions = 0)
   3869  2510    72910.7258   116                  99505.3998    58892         
   4815  3052    76671.9568   102                  99505.3998    79240         
   5719  3803   -11952.6099    94                  99505.3998   111956         
   6681  3985    59074.3261   129                  99505.3998   122170         
   7672  4376    67682.2797   103                  96877.0064   139674         
   8253  4813    71594.3258   102                  96877.0064   163936         
   8351  5539    78368.7047   135                  84085.3270   209019         
   9080   549    33229.6072    36                  83923.0050   216500         
  10061  1395    52979.1973    51                  83504.4614   233849         
  11055  2159    46666.1850    10                  83504.4614   248076         
Elapsed time = 53.26 sec. (15896.42 ticks, tree = 19.27 MB, solutions = 0)
  12018  2708    33206.2483    45                  83504.4614   258062         
  12933  3804    53393.9014    42                  83504.4614   279126         
  13771  4091    infeasible                        83504.4614   284178         
  14530  3895    infeasible                        83504.4614   282868         
  15331  4825    62725.4530    80                  83504.4614   297409         
  16223  4939    49074.3847    38                  83504.4614   300319         
  17187  5795    51153.9972    37                  83504.4614   320817         
  18141  5885  -269713.1985    75                  83504.4614   322773         
  19098  7156    46205.0995    48                  83504.4614   348120         
  19978  7898    48087.3952    37                  83504.4614   375627         
Elapsed time = 96.42 sec. (25443.96 ticks, tree = 63.87 MB, solutions = 0)
  20861  6736    55796.0142    67                  83504.4614   340682         
  21735  7739    58835.0257   118                  83504.4614   375423         
  22520  9398    54279.8970    40                  83504.4614   407049         
  23283 10598   -14334.4393    22                  83504.4614   428005         
  24033  8277    52790.8875    38                  83504.4614   384471         
  24803  8534    infeasible                        83504.4614   395461         
  25586 12327    53362.1156    63                  83504.4614   487987         
  26167 11405    37664.9308    48                  83504.4614   465983         
  26877 12720    22549.8439    54                  83504.4614   498485         
  27547 12498    34496.8274    90                  83504.4614   492683         
Elapsed time = 142.48 sec. (34994.02 ticks, tree = 100.38 MB, solutions = 0)
  28252 11443    59777.4558    74                  83504.4614   467826         
  28957 11574    infeasible                        83504.4614   477947         
  29703 11146  -240152.9821    74                  83504.4614   442687         
  30461 13648  -400064.2495   110                  83504.4614   533844         
  31242 12761    21108.3740    62                  83504.4614   500606         
  31985 16332    52681.2244    38                  83504.4614   645258         
  32633 11381    45984.8127     5                  83504.4614   464325         
  33388 13088    58561.4014    87                  83504.4614   521333         
  34123 13964    infeasible                        83504.4614   545711         
  34798 15644    30230.1490    67                  83504.4614   606462         
Elapsed time = 168.17 sec. (44539.67 ticks, tree = 149.63 MB, solutions = 0)
  35468 17658    48332.9812    56                  83504.4614   698680         
  36199 15725    18923.1400    62                  83504.4614   613058         
  36902 16019    49810.0898    33                  83504.4614   626138         
  37601 14354   -45680.2915    50                  83504.4614   560904         
  38305 17092    infeasible                        83504.4614   683145         
  39071 14515    43863.3784    39                  83504.4614   564370         
  39660 15979    41971.9546    54                  83504.4614   626373         
  40313 16046    38588.9227    58                  83504.4614   627973         
  40829 17310    52380.1710    68                  83504.4614   694422         
  41301 18663    infeasible                        83504.4614   736048         
Elapsed time = 183.50 sec. (54084.65 ticks, tree = 170.52 MB, solutions = 0)
  41783 16450    42998.2261    43                  83504.4614   651483         
  42321 17486    25559.2569    51                  83504.4614   703642         
  42718 18094    41521.2531    52                  83504.4614   732429         
  42999 17246    infeasible                        83504.4614   691782         
  43277 18154    22001.2415    46                  83504.4614   742969         
  43472 17674    39300.4349    90                  83504.4614   717967         
  43596 17706  -109414.6202   103                  83504.4614   722938         
  43756 17762    27995.9333    58                  83504.4614   725759         
  43944 18855    infeasible                        83504.4614   769657         
  44105 17833  -368177.7336    73                  83504.4614   732672         
Elapsed time = 194.23 sec. (63663.28 ticks, tree = 204.77 MB, solutions = 0)
  44353 18905    45322.5332     9                  83504.4614   777112         
  44520 18909    33719.3311    38                  83504.4614   781691         
  44677 18939    29051.4209    17                  83504.4614   786025         
  44837 18976   -38744.0371    42                  83504.4614   789494         
  44986 18537    43379.7522    13                  83504.4614   774073         
  45079 19006     6843.4240    23                  83504.4614   796512         
  45153 19050    18513.7557    38                  83504.4614   799245         
  45212 19080    39544.6960    28                  83504.4614   801173         
  45248 19086    33204.5865    44                  83504.4614   804915         
  45268 18429    45848.3579     4                  83504.4614   720736         
Elapsed time = 199.83 sec. (73271.48 ticks, tree = 150.42 MB, solutions = 0)
  45312 18446    72337.7333   123                  83504.4614   721532         

Root node processing (before b&c):
  Real time             =    2.81 sec. (1877.60 ticks)
Parallel b&c, 12 threads:
  Real time             =  197.59 sec. (73123.00 ticks)
  Sync time (average)   =    0.37 sec.
  Wait time (average)   =    0.03 sec.
                          ------------
Total (root+branch&cut) =  200.41 sec. (75000.60 ticks)


MIP - Deterministic time limit exceeded, no integer solution.
Current MIP best bound =  8.3504461447e+04 (gap is infinite)
Solution time =  200.41 sec.  Iterations = 1282810  Nodes = 45367 (27176)
Deterministic time = 75000.75 ticks  (374.24 ticks/sec)

CPLEX> CPLEX Error  1217: No solution exists.
No file written.
CPLEX> gap is infinite, so writing 0
Exporting results... 
